benchmarks_CP/INST_49x49/40/inst49x49_40_62.dzn
S=7;
start=[|
-1,	-1,	-1,	-1,	28,	17,	42,	-1,	-1,	5,	-1,	-1,	38,	29,	-1,	-1,	27,	-1,	-1,	-1,	-1,	-1,	44,	25,	-1,	-1,	36,	33,	40,	-1,	3,	12,	13,	-1,	20,	-1,	-1,	-1,	49,	-1,	14,	-1,	-1,	-1,	-1,	-1,	47,	-1,	-1|
-1,	-1,	36,	29,	-1,	40,	-1,	-1,	16,	-1,	31,	-1,	48,	-1,	43,	-1,	-1,	-1,	42,	11,	-1,	-1,	-1,	34,	9,	-1,	-1,	-1,	-1,	2,	-1,	-1,	-1,	-1,	-1,	26,	-1,	-1,	-1,	-1,	7,	-1,	-1,	-1,	-1,	14,	-1,	19,	-1|
16,	12,	-1,	-1,	-1,	8,	-1,	9,	34,	-1,	-1,	-1,	10,	-1,	14,	-1,	40,	25,	-1,	47,	-1,	-1,	-1,	28,	23,	-1,	-1,	41,	-1,	30,	11,	45,	-1,	42,	4,	-1,	-1,	3,	-1,	38,	-1,	33,	-1,	49,	-1,	-1,	36,	-1,	-1|
11,	-1,	32,	-1,	9,	-1,	5,	-1,	43,	-1,	-1,	-1,	-1,	-1,	-1,	34,	-1,	35,	-1,	12,	-1,	10,	47,	-1,	-1,	-1,	27,	-1,	19,	-1,	-1,	-1,	-1,	-1,	22,	39,	36,	-1,	25,	-1,	-1,	-1,	13,	-1,	-1,	21,	-1,	-1,	-1|
-1,	-1,	-1,	-1,	-1,	-1,	-1,	-1,	-1,	-1,	-1,	-1,	-1,	26,	9,	-1,	45,	17,	-1,	5,	-1,	7,	-1,	-1,	13,	-1,	-1,	32,	-1,	-1,	-1,	46,	-1,	-1,	29,	-1,	-1,	11,	37,	-1,	30,	12,	-1,	-1,	-1,	8,	-1,	-1,	-1|
46,	37,	-1,	39,	14,	-1,	15,	40,	-1,	-1,	-1,	-1,	25,	11,	32,	48,	-1,	-1,	30,	22,	-1,	6,	-1,	-1,	-1,	16,	26,	3,	5,	-1,	-1,	44,	-1,	-1,	-1,	-1,	43,	-1,	9,	27,	-1,	8,	17,	-1,	-1,	-1,	10,	2,	31|
-1,	-1,	21,	-1,	49,	24,	2,	-1,	-1,	-1,	-1,	-1,	42,	-1,	-1,	-1,	-1,	-1,	-1,	-1,	36,	40,	37,	-1,	35,	45,	22,	-1,	27,	-1,	41,	43,	-1,	-1,	23,	-1,	31,	-1,	47,	16,	-1,	-1,	-1,	-1,	39,	-1,	-1,	3,	1|
-1,	-1,	-1,	13,	42,	-1,	44,	16,	47,	-1,	39,	-1,	-1,	-1,	21,	-1,	-1,	20,	45,	-1,	15,	33,	-1,	-1,	-1,	-1,	-1,	-1,	-1,	-1,	-1,	-1,	46,	-1,	-1,	22,	-1,	-1,	-1,	-1,	-1,	-1,	3,	-1,	-1,	35,	-1,	29,	-1|
19,	-1,	10,	-1,	33,	-1,	3,	2,	-1,	25,	8,	-1,	-1,	-1,	-1,	42,	47,	4,	-1,	-1,	-1,	-1,	-1,	14,	7,	-1,	-1,	-1,	12,	35,	-1,	-1,	5,	-1,	-1,	31,	-1,	-1,	-1,	-1,	17,	-1,	16,	-1,	1,	48,	43,	-1,	44|
26,	16,	-1,	-1,	-1,	-1,	9,	-1,	-1,	40,	-1,	-1,	-1,	-1,	-1,	27,	-1,	19,	-1,	14,	-1,	-1,	30,	-1,	34,	-1,	6,	-1,	15,	-1,	-1,	29,	-1,	17,	36,	42,	44,	47,	-1,	-1,	1,	2,	-1,	32,	-1,	45,	-1,	20,	-1|
-1,	39,	-1,	-1,	-1,	-1,	-1,	35,	44,	-1,	-1,	21,	-1,	-1,	33,	-1,	17,	8,	10,	-1,	-1,	9,	22,	-1,	27,	-1,	-1,	19,	-1,	1,	23,	-1,	26,	3,	-1,	-1,	48,	-1,	-1,	28,	43,	-1,	-1,	34,	-1,	-1,	15,	-1,	-1|
28,	46,	-1,	34,	-1,	-1,	21,	-1,	9,	24,	-1,	1,	-1,	-1,	-1,	-1,	-1,	-1,	26,	29,	-1,	-1,	-1,	-1,	-1,	-1,	-1,	-1,	-1,	-1,	-1,	-1,	44,	-1,	-1,	-1,	-1,	-1,	18,	35,	-1,	-1,	-1,	39,	-1,	-1,	-1,	36,	-1|
-1,	-1,	37,	-1,	45,	5,	-1,	-1,	49,	-1,	18,	11,	26,	42,	-1,	22,	1,	-1,	-1,	13,	-1,	-1,	15,	-1,	39,	-1,	29,	-1,	-1,	9,	-1,	-1,	-1,	-1,	-1,	-1,	-1,	27,	-1,	-1,	23,	-1,	4,	-1,	19,	-1,	-1,	38,	-1|
-1,	-1,	2,	35,	-1,	47,	-1,	-1,	7,	-1,	-1,	-1,	29,	-1,	-1,	38,	3,	-1,	-1,	-1,	-1,	12,	-1,	10,	-1,	-1,	28,	18,	-1,	8,	-1,	-1,	-1,	-1,	21,	-1,	-1,	-1,	6,	-1,	4,	-1,	-1,	27,	-1,	-1,	-1,	-1,	22|
-1,	-1,	-1,	-1,	19,	-1,	8,	-1,	37,	-1,	44,	-1,	-1,	-1,	46,	45,	16,	33,	24,	-1,	-1,	3,	35,	15,	-1,	-1,	-1,	12,	-1,	-1,	-1,	-1,	-1,	36,	-1,	-1,	-1,	39,	41,	-1,	22,	-1,	-1,	40,	34,	-1,	11,	-1,	30|
-1,	-1,	-1,	-1,	-1,	-1,	12,	47,	25,	28,	41,	5,	22,	49,	-1,	-1,	-1,	39,	-1,	30,	43,	-1,	-1,	13,	-1,	48,	19,	-1,	-1,	6,	-1,	-1,	-1,	-1,	40,	-1,	-1,	-1,	-1,	24,	31,	32,	-1,	33,	3,	15,	38,	-1,	37|
-1,	21,	-1,	-1,	-1,	-1,	-1,	-1,	-1,	19,	43,	-1,	13,	-1,	17,	26,	-1,	-1,	23,	-1,	12,	-1,	-1,	-1,	31,	-1,	38,	-1,	34,	-1,	18,	16,	41,	22,	-1,	44,	-1,	-1,	-1,	-1,	11,	35,	48,	-1,	36,	-1,	-1,	7,	2|
-1,	-1,	5,	-1,	-1,	-1,	-1,	-1,	-1,	18,	7,	26,	2,	45,	13,	-1,	9,	-1,	15,	4,	38,	-1,	-1,	30,	-1,	-1,	33,	-1,	20,	-1,	-1,	-1,	3,	-1,	44,	48,	-1,	-1,	-1,	-1,	25,	-1,	29,	8,	-1,	-1,	-1,	-1,	32|
-1,	-1,	14,	-1,	-1,	-1,	-1,	36,	39,	-1,	-1,	-1,	40,	23,	41,	-1,	-1,	-1,	31,	-1,	32,	-1,	43,	47,	-1,	6,	10,	37,	24,	-1,	2,	-1,	25,	-1,	-1,	19,	29,	-1,	33,	4,	-1,	-1,	45,	35,	-1,	22,	46,	-1,	-1|
-1,	-1,	18,	-1,	15,	16,	-1,	-1,	-1,	-1,	-1,	12,	24,	9,	-1,	-1,	-1,	-1,	-1,	-1,	42,	-1,	-1,	26,	-1,	-1,	-1,	-1,	46,	33,	-1,	-1,	-1,	-1,	-1,	-1,	40,	36,	-1,	-1,	-1,	-1,	28,	44,	6,	-1,	-1,	21,	-1|
33,	-1,	-1,	-1,	-1,	32,	45,	-1,	-1,	16,	38,	-1,	35,	48,	-1,	-1,	-1,	11,	-1,	-1,	-1,	-1,	-1,	39,	-1,	-1,	-1,	44,	-1,	-1,	-1,	9,	-1,	-1,	30,	3,	-1,	8,	-1,	-1,	37,	1,	-1,	47,	-1,	43,	-1,	-1,	42|
-1,	-1,	45,	28,	-1,	34,	-1,	39,	33,	46,	-1,	-1,	-1,	-1,	10,	4,	-1,	-1,	-1,	-1,	-1,	-1,	14,	-1,	42,	-1,	-1,	23,	-1,	-1,	1,	8,	11,	30,	-1,	6,	-1,	-1,	-1,	-1,	-1,	-1,	20,	-1,	-1,	-1,	-1,	-1,	-1|
-1,	-1,	-1,	-1,	-1,	43,	-1,	7,	-1,	-1,	23,	31,	-1,	27,	49,	32,	-1,	-1,	-1,	-1,	17,	-1,	-1,	-1,	-1,	20,	-1,	22,	-1,	-1,	9,	-1,	-1,	-1,	13,	34,	33,	-1,	-1,	-1,	-1,	-1,	-1,	-1,	-1,	-1,	-1,	11,	8|
-1,	23,	-1,	31,	18,	-1,	29,	17,	-1,	-1,	-1,	-1,	45,	38,	-1,	-1,	42,	-1,	-1,	26,	-1,	-1,	39,	49,	8,	-1,	-1,	-1,	3,	4,	37,	25,	-1,	-1,	-1,	-1,	-1,	-1,	-1,	-1,	-1,	-1,	-1,	-1,	15,	-1,	48,	-1,	-1|
21,	-1,	-1,	46,	-1,	-1,	32,	-1,	-1,	41,	-1,	-1,	-1,	18,	15,	-1,	-1,	22,	-1,	39,	-1,	-1,	-1,	16,	-1,	-1,	25,	-1,	-1,	-1,	-1,	-1,	35,	6,	-1,	8,	47,	-1,	17,	-1,	48,	44,	10,	-1,	45,	-1,	42,	-1,	-1|
-1,	-1,	-1,	41,	-1,	-1,	-1,	-1,	-1,	48,	9,	4,	-1,	-1,	-1,	-1,	-1,	31,	29,	34,	45,	-1,	-1,	7,	47,	-1,	-1,	-1,	-1,	20,	10,	-1,	2,	-1,	24,	-1,	-1,	-1,	-1,	-1,	-1,	-1,	-1,	-1,	33,	-1,	14,	-1,	-1|
-1,	-1,	47,	1,	-1,	-1,	49,	34,	40,	-1,	2,	-1,	-1,	21,	-1,	-1,	18,	23,	16,	-1,	8,	4,	-1,	-1,	-1,	-1,	-1,	15,	14,	-1,	-1,	36,	42,	-1,	-1,	-1,	-1,	-1,	30,	-1,	12,	10,	-1,	22,	-1,	-1,	27,	24,	35|
3,	10,	19,	-1,	-1,	14,	-1,	-1,	42,	-1,	47,	-1,	32,	22,	-1,	9,	20,	-1,	27,	7,	-1,	-1,	33,	-1,	43,	-1,	-1,	24,	-1,	23,	-1,	39,	-1,	-1,	-1,	-1,	-1,	35,	31,	-1,	38,	-1,	-1,	-1,	41,	-1,	-1,	44,	-1|
-1,	14,	-1,	-1,	36,	-1,	-1,	-1,	26,	-1,	-1,	-1,	-1,	-1,	-1,	-1,	-1,	38,	-1,	31,	-1,	-1,	-1,	23,	-1,	-1,	37,	-1,	-1,	-1,	-1,	-1,	-1,	-1,	-1,	-1,	-1,	2,	-1,	-1,	-1,	-1,	-1,	-1,	40,	-1,	-1,	22,	49|
47,	-1,	-1,	-1,	-1,	-1,	40,	38,	-1,	10,	16,	-1,	39,	33,	19,	-1,	4,	-1,	-1,	-1,	-1,	22,	-1,	48,	28,	-1,	-1,	-1,	37,	25,	-1,	5,	-1,	-1,	45,	-1,	49,	-1,	43,	-1,	24,	14,	31,	30,	32,	-1,	3,	23,	29|
8,	-1,	38,	12,	16,	39,	25,	-1,	6,	7,	-1,	-1,	-1,	-1,	-1,	-1,	14,	29,	-1,	21,	24,	-1,	-1,	-1,	-1,	4,	-1,	-1,	41,	19,	-1,	22,	31,	-1,	-1,	-1,	-1,	30,	11,	-1,	-1,	20,	-1,	-1,	-1,	-1,	28,	35,	48|
-1,	-1,	27,	32,	4,	-1,	-1,	-1,	-1,	-1,	22,	-1,	-1,	1,	-1,	37,	26,	6,	-1,	-1,	-1,	13,	49,	-1,	-1,	11,	-1,	21,	9,	46,	-1,	2,	30,	-1,	7,	33,	35,	-1,	-1,	-1,	-1,	25,	-1,	41,	14,	18,	-1,	-1,	39|
-1,	18,	-1,	-1,	-1,	-1,	35,	-1,	5,	-1,	-1,	-1,	-1,	31,	-1,	39,	-1,	-1,	11,	-1,	27,	-1,	-1,	-1,	-1,	36,	-1,	9,	43,	-1,	-1,	-1,	16,	-1,	-1,	-1,	32,	26,	-1,	22,	44,	29,	2,	-1,	-1,	33,	-1,	12,	-1|
-1,	-1,	-1,	3,	37,	-1,	-1,	41,	-1,	-1,	11,	19,	-1,	-1,	-1,	-1,	43,	44,	-1,	23,	-1,	1,	-1,	35,	-1,	-1,	-1,	-1,	4,	-1,	-1,	-1,	32,	-1,	-1,	-1,	-1,	-1,	12,	48,	9,	5,	-1,	-1,	-1,	24,	-1,	26,	-1|
-1,	-1,	15,	49,	22,	44,	-1,	29,	-1,	45,	-1,	48,	-1,	-1,	-1,	20,	-1,	-1,	-1,	-1,	-1,	-1,	27,	24,	-1,	14,	-1,	-1,	-1,	-1,	-1,	-1,	-1,	21,	-1,	47,	-1,	40,	-1,	-1,	36,	-1,	-1,	-1,	25,	37,	-1,	-1,	4|
-1,	-1,	17,	-1,	-1,	-1,	-1,	-1,	-1,	-1,	-1,	-1,	3,	40,	-1,	-1,	-1,	49,	-1,	-1,	-1,	-1,	-1,	-1,	-1,	-1,	-1,	-1,	16,	-1,	-1,	41,	9,	2,	37,	-1,	14,	32,	22,	-1,	-1,	-1,	-1,	-1,	-1,	-1,	-1,	31,	19|
4,	22,	39,	-1,	-1,	-1,	11,	-1,	-1,	30,	26,	-1,	19,	-1,	-1,	-1,	37,	-1,	-1,	32,	-1,	-1,	-1,	27,	-1,	-1,	-1,	7,	-1,	-1,	-1,	33,	-1,	-1,	12,	49,	-1,	-1,	42,	-1,	3,	-1,	40,	-1,	28,	5,	-1,	-1,	-1|
-1,	-1,	-1,	16,	-1,	-1,	18,	22,	2,	-1,	-1,	37,	-1,	8,	48,	-1,	-1,	-1,	-1,	41,	-1,	38,	-1,	9,	3,	19,	1,	-1,	7,	26,	28,	-1,	-1,	-1,	17,	30,	12,	13,	-1,	-1,	40,	-1,	32,	36,	-1,	46,	44,	-1,	11|
-1,	31,	46,	-1,	26,	41,	-1,	-1,	13,	42,	-1,	24,	43,	-1,	-1,	-1,	-1,	-1,	-1,	-1,	44,	-1,	-1,	-1,	-1,	-1,	-1,	-1,	-1,	-1,	14,	18,	39,	5,	32,	-1,	-1,	-1,	15,	-1,	-1,	-1,	21,	-1,	-1,	-1,	-1,	-1,	-1|
24,	-1,	-1,	-1,	-1,	-1,	-1,	-1,	18,	29,	-1,	-1,	-1,	32,	4,	33,	-1,	42,	-1,	-1,	-1,	41,	-1,	-1,	-1,	-1,	40,	-1,	44,	-1,	-1,	11,	-1,	-1,	-1,	38,	16,	-1,	27,	9,	26,	43,	39,	12,	49,	-1,	-1,	-1,	-1|
-1,	-1,	-1,	-1,	2,	45,	37,	-1,	27,	-1,	-1,	-1,	34,	28,	-1,	-1,	-1,	18,	-1,	-1,	-1,	-1,	5,	11,	-1,	-1,	14,	-1,	21,	-1,	46,	-1,	-1,	38,	3,	-1,	4,	-1,	-1,	-1,	47,	-1,	41,	-1,	10,	-1,	22,	48,	-1|
-1,	-1,	-1,	-1,	30,	15,	-1,	-1,	14,	-1,	-1,	-1,	-1,	-1,	2,	17,	-1,	-1,	-1,	-1,	-1,	-1,	-1,	32,	26,	-1,	-1,	-1,	25,	-1,	-1,	-1,	20,	8,	34,	18,	19,	48,	-1,	-1,	35,	-1,	1,	-1,	4,	3,	-1,	-1,	7|
1,	34,	-1,	-1,	-1,	-1,	22,	-1,	-1,	-1,	19,	-1,	41,	36,	-1,	46,	-1,	12,	-1,	18,	2,	-1,	-1,	44,	45,	-1,	-1,	-1,	38,	3,	-1,	-1,	37,	-1,	-1,	25,	-1,	42,	16,	43,	-1,	-1,	-1,	-1,	-1,	-1,	-1,	-1,	-1|
12,	-1,	-1,	-1,	-1,	-1,	46,	43,	-1,	-1,	-1,	30,	-1,	-1,	8,	-1,	-1,	-1,	-1,	17,	23,	42,	-1,	-1,	-1,	10,	9,	11,	-1,	16,	-1,	20,	18,	-1,	-1,	35,	41,	-1,	-1,	45,	-1,	-1,	22,	-1,	-1,	34,	25,	-1,	26|
5,	-1,	-1,	10,	43,	31,	-1,	-1,	-1,	-1,	34,	35,	-1,	-1,	-1,	-1,	49,	-1,	9,	-1,	7,	37,	26,	41,	38,	-1,	-1,	-1,	17,	-1,	-1,	6,	1,	29,	-1,	-1,	27,	-1,	-1,	-1,	33,	-1,	-1,	-1,	-1,	44,	8,	-1,	-1|
-1,	49,	-1,	15,	-1,	-1,	14,	-1,	-1,	-1,	40,	46,	33,	-1,	27,	25,	41,	43,	-1,	-1,	-1,	-1,	3,	-1,	-1,	34,	-1,	48,	-1,	-1,	-1,	-1,	-1,	-1,	42,	-1,	-1,	-1,	-1,	12,	32,	-1,	-1,	1,	17,	29,	-1,	-1,	-1|
-1,	47,	-1,	-1,	-1,	-1,	16,	-1,	1,	-1,	-1,	42,	17,	14,	-1,	35,	33,	-1,	-1,	-1,	20,	49,	-1,	-1,	46,	-1,	-1,	-1,	-1,	12,	40,	-1,	-1,	-1,	-1,	4,	-1,	-1,	23,	-1,	-1,	-1,	19,	13,	9,	32,	-1,	-1,	-1|
-1,	-1,	-1,	21,	41,	-1,	-1,	-1,	15,	22,	-1,	44,	49,	25,	-1,	-1,	13,	-1,	-1,	-1,	37,	14,	-1,	-1,	-1,	7,	-1,	-1,	-1,	-1,	30,	-1,	47,	-1,	46,	36,	-1,	17,	-1,	-1,	6,	3,	35,	-1,	2,	-1,	18,	-1,	-1|
-1,	42,	-1,	-1,	-1,	-1,	-1,	26,	-1,	-1,	-1,	16,	47,	-1,	-1,	-1,	-1,	-1,	14,	-1,	-1,	-1,	40,	-1,	21,	25,	20,	-1,	-1,	-1,	-1,	35,	27,	34,	9,	-1,	-1,	-1,	-1,	1,	-1,	-1,	30,	-1,	-1,	11,	-1,	46,	3|];
