sudoku-ls/benchmarks_LEQ/INST_49x49/40/inst49x49_40_62.txt
7
1
10	4	-1	43	-1	-1	42	-1	21	-1	35	8	38	-1	-1	-1	-1	-1	-1	16	-1	11	44	-1	-1	-1	36	-1	40	-1	3	12	13	-1	20	-1	-1	-1	49	2	-1	-1	-1	-1	-1	-1	-1	-1	15
-1	45	36	-1	3	-1	-1	30	16	-1	31	-1	-1	12	-1	21	-1	-1	-1	11	-1	5	38	-1	-1	1	-1	-1	-1	-1	24	17	33	-1	-1	-1	6	-1	35	-1	-1	-1	-1	-1	-1	-1	-1	-1	23
-1	12	-1	26	-1	8	-1	9	34	-1	46	-1	10	-1	14	19	-1	-1	2	47	-1	-1	-1	28	23	-1	-1	-1	-1	-1	-1	-1	-1	-1	4	-1	-1	-1	48	-1	-1	33	27	49	-1	-1	36	-1	-1
-1	-1	-1	44	-1	-1	5	45	-1	-1	-1	-1	-1	3	-1	-1	7	35	-1	-1	49	-1	47	-1	-1	46	27	-1	-1	15	-1	1	-1	-1	-1	-1	-1	-1	-1	-1	-1	-1	-1	-1	48	-1	-1	41	-1
-1	25	22	-1	34	-1	-1	-1	-1	27	1	-1	-1	-1	-1	10	-1	17	38	5	-1	-1	-1	-1	-1	-1	31	-1	36	-1	48	-1	49	16	29	21	20	-1	-1	-1	-1	-1	-1	-1	-1	-1	35	-1	-1
-1	-1	-1	-1	-1	-1	15	40	4	33	-1	-1	-1	-1	32	48	23	13	30	22	-1	6	-1	12	-1	16	26	-1	5	-1	-1	-1	-1	47	-1	-1	-1	-1	-1	-1	45	-1	17	-1	18	7	-1	-1	31
-1	-1	-1	-1	49	-1	2	-1	-1	-1	-1	-1	-1	-1	-1	-1	46	15	-1	33	-1	40	-1	29	-1	-1	22	-1	-1	-1	-1	43	28	-1	23	-1	31	5	-1	-1	-1	34	-1	-1	39	38	12	3	-1
7	-1	25	-1	42	-1	44	16	47	31	39	41	-1	-1	-1	-1	32	-1	-1	40	15	-1	1	-1	-1	23	-1	36	6	-1	-1	-1	-1	-1	18	-1	-1	-1	-1	-1	-1	-1	-1	-1	-1	-1	-1	-1	28
-1	15	10	22	-1	36	-1	2	30	-1	-1	28	-1	-1	-1	42	47	-1	6	-1	-1	45	41	-1	7	-1	46	26	-1	-1	-1	-1	5	20	-1	-1	-1	-1	-1	32	17	24	16	-1	-1	-1	43	9	-1
-1	-1	-1	-1	12	11	9	-1	22	40	-1	38	46	10	28	-1	-1	-1	-1	14	-1	-1	-1	-1	-1	-1	6	-1	-1	-1	-1	-1	4	-1	36	42	44	-1	-1	49	-1	2	7	-1	-1	-1	-1	20	18
-1	-1	24	18	-1	-1	31	-1	-1	-1	-1	21	-1	-1	33	-1	-1	-1	10	37	-1	-1	22	-1	27	42	13	-1	-1	-1	-1	-1	-1	-1	-1	16	-1	-1	36	-1	-1	-1	-1	34	-1	-1	15	40	47
28	46	-1	-1	-1	4	21	15	-1	24	3	1	27	43	-1	-1	-1	5	-1	-1	-1	-1	-1	-1	16	8	49	40	42	31	-1	47	44	13	-1	-1	-1	-1	18	35	41	-1	-1	-1	-1	10	-1	36	-1
20	17	-1	-1	-1	5	-1	-1	49	-1	18	-1	26	-1	-1	-1	1	-1	-1	13	-1	47	-1	3	39	43	29	-1	28	-1	16	-1	-1	-1	25	-1	-1	27	-1	-1	23	46	-1	31	-1	-1	-1	-1	-1
-1	32	-1	-1	-1	-1	1	13	7	-1	-1	-1	29	17	-1	-1	-1	9	-1	46	-1	-1	-1	-1	-1	-1	-1	-1	30	8	-1	-1	-1	19	-1	-1	-1	33	-1	37	-1	-1	-1	27	26	-1	-1	-1	22
-1	-1	13	-1	19	-1	8	-1	-1	-1	-1	-1	-1	-1	-1	-1	-1	33	-1	27	-1	3	35	15	-1	-1	21	12	29	-1	26	49	-1	-1	-1	-1	9	-1	41	-1	-1	-1	-1	-1	-1	-1	-1	-1	30
34	-1	9	7	-1	-1	12	-1	-1	-1	41	-1	-1	49	-1	-1	-1	-1	21	-1	-1	-1	46	13	1	-1	-1	-1	-1	-1	-1	-1	-1	-1	-1	17	42	16	26	24	-1	32	-1	-1	-1	-1	38	10	-1
49	21	3	24	-1	37	47	-1	8	19	43	33	13	-1	17	26	-1	40	-1	-1	12	-1	-1	-1	31	-1	-1	42	-1	-1	-1	16	41	22	-1	-1	-1	6	45	-1	11	-1	-1	-1	-1	-1	39	-1	2
-1	-1	5	-1	-1	-1	28	42	46	18	7	-1	2	-1	-1	-1	9	10	15	4	-1	24	16	30	36	-1	-1	14	-1	47	39	37	-1	35	44	48	-1	49	21	-1	25	27	-1	8	-1	-1	41	17	32
30	-1	14	-1	20	-1	26	36	-1	11	-1	3	-1	23	-1	-1	-1	-1	-1	28	32	34	-1	47	5	-1	-1	37	-1	-1	-1	21	-1	-1	48	-1	-1	-1	-1	-1	15	-1	45	-1	27	-1	-1	-1	-1
39	-1	18	4	15	-1	-1	-1	31	34	-1	12	-1	-1	-1	-1	29	-1	-1	48	42	-1	2	26	11	22	-1	-1	46	-1	19	-1	17	7	38	43	-1	-1	5	-1	20	-1	-1	-1	6	49	-1	21	-1
33	-1	6	-1	-1	32	45	-1	29	16	38	-1	-1	-1	-1	36	34	11	-1	-1	-1	-1	18	39	-1	-1	-1	-1	-1	-1	-1	-1	-1	-1	-1	3	28	8	-1	10	37	-1	-1	-1	-1	-1	-1	-1	-1
-1	-1	-1	-1	17	-1	38	-1	-1	46	37	29	-1	24	-1	4	-1	47	-1	35	-1	-1	14	-1	-1	9	-1	-1	18	-1	1	8	-1	30	5	6	-1	43	-1	-1	-1	-1	20	-1	31	-1	26	49	-1
35	-1	-1	37	44	43	-1	-1	19	26	23	-1	-1	-1	-1	32	6	-1	-1	2	-1	-1	-1	18	-1	20	5	-1	-1	-1	-1	15	-1	-1	13	-1	33	25	-1	14	-1	42	-1	-1	29	4	-1	-1	8
22	23	-1	-1	-1	-1	-1	-1	-1	-1	-1	-1	-1	38	24	-1	-1	-1	-1	-1	-1	44	-1	-1	8	-1	-1	-1	-1	4	-1	25	34	-1	19	-1	2	41	-1	21	-1	-1	-1	7	15	30	-1	47	-1
-1	-1	4	-1	11	-1	-1	49	28	-1	-1	-1	5	18	15	-1	36	-1	-1	-1	-1	-1	29	-1	-1	-1	-1	-1	-1	27	7	-1	35	-1	-1	-1	-1	24	-1	-1	-1	44	10	2	-1	23	-1	1	34
-1	-1	42	41	-1	25	-1	-1	3	-1	-1	4	16	35	37	30	-1	31	-1	-1	45	-1	-1	-1	47	21	11	-1	22	20	-1	-1	2	-1	-1	40	-1	23	-1	26	13	-1	18	19	33	-1	14	-1	-1
-1	26	-1	1	-1	-1	-1	-1	-1	44	-1	-1	20	-1	11	28	18	-1	16	-1	-1	4	48	-1	-1	-1	17	15	14	-1	-1	-1	42	-1	41	-1	-1	-1	-1	19	-1	-1	9	-1	-1	-1	27	24	-1
-1	-1	19	-1	8	-1	30	-1	-1	-1	-1	-1	-1	22	-1	-1	-1	-1	-1	-1	48	-1	-1	-1	43	26	34	24	-1	23	17	39	-1	-1	16	-1	18	-1	31	-1	38	-1	-1	-1	41	28	-1	-1	-1
-1	-1	-1	-1	36	-1	-1	-1	-1	-1	42	-1	44	-1	-1	-1	48	38	32	-1	-1	-1	-1	-1	-1	-1	-1	-1	35	-1	-1	3	29	18	33	28	-1	-1	-1	-1	21	15	-1	-1	-1	-1	-1	22	49
-1	-1	26	-1	21	-1	-1	38	-1	10	-1	20	-1	-1	-1	7	-1	-1	-1	-1	35	-1	-1	48	28	12	42	-1	37	-1	44	5	-1	27	-1	41	-1	1	43	-1	-1	-1	-1	-1	-1	-1	-1	23	29
8	-1	38	12	-1	39	25	-1	-1	7	-1	40	-1	-1	-1	18	14	29	-1	-1	-1	26	-1	-1	-1	4	-1	-1	41	19	-1	22	-1	-1	-1	-1	-1	-1	-1	-1	-1	20	-1	-1	-1	42	28	-1	48
-1	-1	27	32	4	-1	-1	-1	-1	-1	-1	-1	-1	-1	-1	-1	-1	-1	40	-1	28	-1	-1	-1	-1	-1	-1	-1	-1	46	-1	2	30	48	-1	-1	-1	-1	-1	-1	-1	25	44	-1	-1	-1	-1	5	-1
-1	18	1	23	-1	-1	-1	4	5	-1	-1	-1	-1	31	47	-1	30	41	11	-1	-1	46	-1	-1	-1	36	-1	9	43	-1	13	-1	16	-1	-1	37	-1	-1	-1	-1	-1	-1	2	17	-1	33	-1	12	-1
31	-1	-1	3	-1	-1	-1	-1	36	-1	-1	19	-1	-1	42	15	-1	-1	-1	23	-1	-1	-1	-1	-1	-1	45	-1	-1	-1	49	-1	32	-1	-1	-1	-1	-1	-1	-1	9	-1	47	-1	16	24	-1	-1	-1
-1	7	-1	49	22	-1	-1	29	35	-1	28	48	-1	-1	5	-1	-1	-1	3	8	-1	-1	27	-1	32	14	43	-1	26	-1	-1	42	-1	-1	-1	47	-1	-1	-1	13	36	16	-1	-1	25	37	9	-1	4
-1	13	-1	36	-1	-1	-1	46	48	35	-1	45	-1	-1	23	1	-1	-1	-1	-1	-1	-1	34	-1	12	-1	-1	-1	-1	-1	4	-1	-1	2	-1	-1	-1	-1	22	-1	28	-1	-1	-1	-1	-1	-1	-1	-1
4	-1	-1	9	-1	48	-1	44	-1	30	26	-1	-1	-1	29	-1	-1	16	-1	32	-1	-1	24	-1	18	35	15	-1	-1	-1	6	-1	-1	-1	-1	49	-1	-1	42	25	3	36	-1	-1	28	-1	-1	-1	17
-1	29	-1	-1	-1	21	18	22	-1	-1	49	-1	-1	-1	48	-1	35	-1	47	-1	-1	-1	-1	-1	-1	-1	-1	39	-1	-1	-1	-1	-1	-1	17	30	12	13	-1	-1	-1	-1	-1	-1	42	-1	-1	25	-1
25	-1	46	27	26	-1	-1	-1	13	-1	-1	24	-1	-1	3	11	38	-1	-1	-1	-1	-1	36	-1	22	49	-1	28	-1	-1	14	-1	39	5	-1	-1	-1	10	15	-1	2	-1	-1	9	35	47	-1	-1	-1
-1	8	-1	-1	-1	-1	23	1	18	-1	10	-1	31	-1	-1	-1	-1	-1	-1	36	-1	41	25	-1	-1	2	-1	-1	-1	48	-1	-1	22	-1	-1	38	16	-1	-1	-1	-1	-1	-1	12	-1	13	-1	30	45
32	-1	-1	-1	2	-1	-1	12	-1	39	33	7	34	-1	-1	-1	-1	18	-1	-1	9	-1	5	11	-1	-1	14	8	-1	-1	46	30	19	-1	-1	1	-1	44	-1	17	-1	6	41	16	-1	-1	-1	-1	-1
-1	-1	12	-1	-1	-1	-1	5	-1	-1	21	9	-1	-1	-1	-1	-1	-1	-1	-1	39	-1	10	-1	26	-1	44	47	25	-1	42	-1	-1	-1	-1	-1	-1	-1	-1	41	-1	-1	-1	-1	-1	3	23	33	-1
1	-1	35	-1	-1	-1	22	-1	-1	-1	-1	10	-1	-1	-1	-1	-1	-1	-1	-1	-1	-1	-1	-1	-1	29	-1	-1	38	-1	5	-1	37	-1	-1	25	-1	-1	16	-1	-1	-1	-1	48	21	-1	-1	28	-1
-1	3	29	2	40	-1	-1	-1	-1	13	27	30	-1	-1	-1	24	-1	36	-1	17	23	-1	31	-1	4	-1	-1	-1	49	16	21	-1	18	33	-1	-1	41	14	-1	45	5	48	-1	-1	-1	-1	25	-1	-1
-1	19	-1	10	43	-1	4	-1	-1	-1	-1	-1	-1	-1	-1	47	-1	32	9	15	-1	37	26	-1	38	-1	12	2	17	-1	-1	-1	-1	29	-1	-1	-1	18	46	-1	-1	40	42	-1	-1	-1	8	-1	-1
36	-1	-1	-1	13	30	14	-1	-1	38	-1	-1	33	-1	-1	25	41	43	5	-1	-1	35	-1	22	-1	34	-1	-1	-1	-1	-1	-1	8	11	-1	9	-1	20	39	-1	-1	28	37	1	17	-1	31	4	-1
-1	47	-1	-1	-1	-1	-1	-1	-1	8	5	-1	-1	-1	38	35	-1	26	-1	-1	-1	49	28	-1	-1	30	-1	-1	2	12	40	24	36	-1	15	-1	22	31	23	-1	10	21	19	-1	-1	-1	7	-1	-1
9	38	-1	-1	-1	26	39	-1	-1	22	29	-1	49	-1	45	-1	13	28	1	42	37	-1	23	5	-1	-1	32	-1	-1	-1	30	-1	47	-1	46	-1	-1	-1	34	-1	6	-1	-1	-1	2	-1	18	-1	-1
17	-1	-1	-1	-1	28	7	-1	45	4	-1	16	-1	-1	-1	29	31	-1	14	44	-1	18	-1	36	21	-1	-1	-1	13	-1	32	-1	27	-1	-1	-1	-1	19	38	-1	8	-1	30	-1	-1	11	-1	46	-1
49 
32 14 10 41
6 48 12 35
30 47 10 39
19 40 21 47
49 44 14 47
32 18 27 25
13 32 36 6
10 4 4 24
44 27 26 11
7 36 31 28
14 23 43 17
23 34 28 10
28 49 4 43
20 16 40 21
26 1 46 4
39 14 19 48
1 6 34 19
32 46 39 32
19 36 7 41
34 2 18 29
3 23 25 1
16 13 30 22
22 28 1 42
20 13 42 20
14 37 16 9
21 43 1 44
24 26 1 17
5 8 2 44
2 4 18 43
13 21 30 44
36 48 35 28
2 47 28 13
30 14 32 36
2 24 33 12
14 4 44 36
48 36 38 44
24 31 2 18
27 20 9 26
35 35 36 40
22 24 14 1
37 14 34 8
2 19 13 14
47 24 19 23
15 11 43 24
25 45 28 29
27 37 38 46
43 42 14 6
12 22 22 1
30 37 41 3
